30 31 71 94 83 80 
82 16 76 51 48 
42 41 38 40 81 90 56 
65 67 84 63 33 32 34 29 
99 58 97 66 96 68 
14 75 87 12 47 13 
2 61 88 8 4 45 5 1 
11 17 15 9 74 86 77 
52 69 98 70 44 43 39 36 
92 64 28 50 20 24 
59 73 7 46 6 60 55 
95 89 21 85 62 93 91 
72 35 79 78 100 
53 22 49 19 23 25 
57 3 54 
18 27 26 
37 
10 

